c Reduced graph for GEOM60 generated by Cyril Grelier
p edge 53 165
e 1 2
e 1 6
e 1 8
e 1 9
e 1 26
e 1 39
e 1 42
e 1 48
e 1 51
e 2 6
e 2 7
e 2 26
e 2 32
e 2 50
e 2 51
e 3 13
e 3 14
e 3 27
e 3 33
e 3 35
e 3 41
e 3 49
e 4 15
e 4 17
e 4 18
e 4 19
e 4 36
e 4 52
e 5 11
e 5 23
e 5 24
e 5 30
e 5 37
e 5 45
e 6 8
e 6 39
e 6 41
e 6 48
e 7 19
e 7 32
e 7 51
e 8 9
e 8 39
e 8 41
e 8 42
e 8 46
e 8 48
e 8 49
e 8 53
e 9 26
e 9 39
e 9 41
e 9 42
e 9 46
e 9 48
e 9 53
e 10 20
e 10 21
e 10 25
e 10 26
e 10 29
e 10 40
e 10 43
e 10 50
e 11 23
e 11 30
e 11 37
e 11 38
e 11 45
e 12 13
e 12 14
e 12 22
e 12 28
e 13 14
e 13 22
e 13 27
e 13 28
e 13 41
e 13 49
e 14 22
e 14 27
e 14 33
e 15 18
e 15 24
e 15 36
e 15 44
e 15 52
e 16 18
e 16 19
e 16 31
e 16 44
e 16 47
e 17 34
e 17 36
e 18 19
e 18 31
e 18 36
e 18 44
e 18 47
e 18 52
e 19 31
e 19 32
e 19 36
e 20 21
e 20 29
e 20 40
e 20 43
e 20 50
e 21 29
e 21 40
e 21 43
e 22 27
e 22 28
e 22 49
e 22 53
e 23 24
e 23 30
e 23 37
e 23 38
e 23 45
e 24 36
e 24 52
e 25 26
e 25 50
e 25 51
e 26 39
e 26 50
e 26 51
e 27 33
e 27 41
e 27 49
e 28 46
e 28 49
e 28 53
e 29 40
e 29 43
e 30 37
e 30 45
e 31 44
e 31 47
e 32 50
e 32 51
e 33 35
e 34 35
e 34 37
e 34 38
e 36 52
e 37 38
e 37 45
e 38 45
e 39 41
e 39 42
e 39 48
e 40 43
e 41 48
e 41 49
e 42 46
e 42 48
e 42 53
e 43 50
e 44 47
e 44 52
e 46 53
e 48 49
e 50 51
